30 1 5
888 109 864 208 165 684 867 483 914 196 918 769 477 958 731 740 940 910 140 864 49 884 989 452 734 978 589 442 734 391 
671 973 851 887 180 15 570 399 850 483 594 119 604 422 77 334 161 368 595 300 231 643 535 219 446 620 548 34 413 281 
776 84 254 978 322 785 993 891 183 194 374 128 312 977 549 740 662 61 107 608 712 337 250 598 907 47 218 454 81 982 
87 208 417 340 186 738 476 530 629 11 723 354 138 34 682 39 126 695 451 232 302 163 569 903 760 827 949 329 281 29 
663 367 589 79 58 774 169 533 303 797 543 377 502 33 762 183 423 887 877 873 119 178 387 39 80 147 865 380 827 145 
4090 4890 8630 3490 9200 9200 1220 880 8050 7760 2360 6990 1520 7370 7310 9130 2710 5050 8000 4990 3780 2700 280 1160 3080 4590 6140 5240 8380 4410 
76300
